(declare-const a Real)
(declare-const b Real)
(declare-const c Real)
(assert (= (+ a b c) 3))
(assert (> a 0))
(assert (> b 0))
(assert (> c 0))
(assert (not (<= (+ (pow (* (+ 112225 (* 112225 (pow a 2))) (+ (* (pow b 6) (pow c 4)) (* (pow a 2) (pow b 4) (pow c 6)))) (/ 1 2)) (* -6 (pow a 6)) (* -6 (pow b 6)) (* -6 (pow c 6)) (* 335 (pow (+ (* 2 (pow a 4) (pow b 2) (pow c 6)) (* 2 (pow a 6) (pow b 2) (pow c 4))) (/ 1 2))) (* 335 (pow (+ (* 2 (pow a 4) (pow b 6) (pow c 2)) (* 2 (pow a 6) (pow b 4) (pow c 2))) (/ 1 2))) (* -198 (pow a 3) (pow b 3)) (* -198 (pow a 3) (pow c 3)) (* -198 (pow b 3) (pow c 3)) (* -43 (pow a 2) (pow b 4)) (* -43 (pow a 2) (pow c 4)) (* -43 (pow a 4) (pow b 2)) (* -43 (pow a 4) (pow c 2)) (* -43 (pow b 2) (pow c 4)) (* -43 (pow b 4) (pow c 2)) (* -13 a (pow b 5)) (* -13 a (pow c 5)) (* -13 b (pow a 5)) (* -13 b (pow c 5)) (* -13 c (pow a 5)) (* -13 c (pow b 5)) (* -1062 (pow a 2) (pow b 2) (pow c 2))) 0)))
(check-sat)
(get-model)
(exit)